objective value:                       0.000856594803
x_1_2                                               1 	(obj:0)
x_2_3                                               1 	(obj:0)
x_3_2                                               1 	(obj:0)
x_4_1                                               1 	(obj:0)
x_5_1                                               1 	(obj:0)
x_6_3                                               1 	(obj:0)
x_7_3                                               1 	(obj:0)
x_8_2                                               1 	(obj:0)
x_9_1                                               1 	(obj:0)
x_10_1                                              1 	(obj:0)
x_11_2                                              1 	(obj:0)
x_12_2                                              1 	(obj:0)
x_13_3                                              1 	(obj:0)
x_14_3                                              1 	(obj:0)
x_15_1                                              1 	(obj:0)
x_16_2                                              1 	(obj:0)
x_17_3                                              1 	(obj:0)
x_18_3                                              1 	(obj:0)
x_19_2                                              1 	(obj:0)
x_20_2                                              1 	(obj:0)
ind_1                                               1 	(obj:0)
abs_1_3                                             1 	(obj:0)
ind_2                                               1 	(obj:0)
abs_2_1                                             1 	(obj:0)
ind_3                                               1 	(obj:0)
abs_3_2                                             1 	(obj:0)
epsI                                   0.000856594803 	(obj:1)
prodt_x_19_2_t_x_20_2_coh_2                         1 	(obj:0)
prodt_x_1_2_t_x_2_1_more_coh_1           1.7134533278 	(obj:0)
prodt_x_4_1_t_x_5_1_more_coh_1           2.9480749255 	(obj:0)
prodt_x_5_1_t_x_6_1_more_coh_1           2.6766098317 	(obj:0)
prodt_x_9_1_t_x_14_1_more_coh_1          2.2846795648 	(obj:0)
prodt_x_10_1_t_x_11_1_more_coh_1         1.8526679904 	(obj:0)
prodt_x_1_2_t_x_2_2_more_coh_2            3.858949527 	(obj:0)
prodt_x_3_2_t_x_4_2_more_coh_2       3.15323631150001 	(obj:0)
prodt_x_8_2_t_x_11_2_more_coh_2          3.4047298719 	(obj:0)
prodt_x_11_2_t_x_12_2_more_coh_2          2.391430183 	(obj:0)
prodt_x_12_2_t_x_13_2_more_coh_2         2.4869359184 	(obj:0)
prodt_x_16_2_t_x_17_2_more_coh_2         1.0535617466 	(obj:0)
prodt_x_2_3_t_x_3_3_more_coh_3           6.0692656328 	(obj:0)
prodt_x_6_3_t_x_7_3_more_coh_3           4.6423632477 	(obj:0)
prodt_x_7_3_t_x_9_3_more_coh_3           3.7398098426 	(obj:0)
prodt_x_13_3_t_x_15_3_more_coh_3         3.5469072383 	(obj:0)
prodt_x_14_3_t_x_15_3_more_coh_3         0.7583451058 	(obj:0)
prodt_x_17_3_t_x_18_3_more_coh_3         1.1724964329 	(obj:0)
prodt_x_1_2_t_x_2_2_more_irrev1_2_1     -1.2549098509914 	(obj:0)
prodt_x_3_2_t_x_4_1_more_irrev1_2_1   -0.337574516731152 	(obj:0)
prodt_x_4_1_t_x_5_2_more_irrev1_2_1          -1.11054988 	(obj:0)
prodt_x_5_1_t_x_10_2_more_irrev1_2_1     -2.8973443449916 	(obj:0)
prodt_x_8_2_t_x_9_1_more_irrev1_2_1    -1.75830217219636 	(obj:0)
prodt_x_9_1_t_x_11_2_more_irrev1_2_1    -2.82382668773418 	(obj:0)
prodt_x_10_1_t_x_12_2_more_irrev1_2_1   -0.779610837373403 	(obj:0)
prodt_x_11_2_t_x_13_1_more_irrev1_2_1   -0.188888891714966 	(obj:0)
prodt_x_12_2_t_x_13_1_more_irrev1_2_1   -0.753470939999995 	(obj:0)
prodt_x_15_1_t_x_20_2_more_irrev1_2_1    -1.63878562198849 	(obj:0)
prodt_x_1_2_t_x_2_2_more_irrev2_2_1      1.2549098509914 	(obj:0)
prodt_x_3_2_t_x_4_1_more_irrev2_2_1    0.337574516731152 	(obj:0)
prodt_x_4_1_t_x_5_2_more_irrev2_2_1           1.11054988 	(obj:0)
prodt_x_5_1_t_x_10_2_more_irrev2_2_1     2.89734434499132 	(obj:0)
prodt_x_8_2_t_x_9_1_more_irrev2_2_1     1.75830217219636 	(obj:0)
prodt_x_9_1_t_x_11_2_more_irrev2_2_1     2.82382668773418 	(obj:0)
prodt_x_10_1_t_x_12_2_more_irrev2_2_1    0.779610837373401 	(obj:0)
prodt_x_11_2_t_x_13_1_more_irrev2_2_1    0.188888891714966 	(obj:0)
prodt_x_12_2_t_x_13_1_more_irrev2_2_1    0.753470939999995 	(obj:0)
prodt_x_15_1_t_x_20_2_more_irrev2_2_1     1.63878562198849 	(obj:0)
prodt_x_1_2_t_x_2_3_more_irrev1_3_1      1.2615913414635 	(obj:0)
prodt_x_2_3_t_x_3_1_more_irrev1_3_1     2.43260679482796 	(obj:0)
prodt_x_4_1_t_x_5_3_more_irrev1_3_1     2.21323256000001 	(obj:0)
prodt_x_5_1_t_x_10_3_more_irrev1_3_1    0.674330218098842 	(obj:0)
prodt_x_6_3_t_x_7_1_more_irrev1_3_1     1.07518597824601 	(obj:0)
prodt_x_7_3_t_x_10_1_more_irrev1_3_1     1.57496091000001 	(obj:0)
prodt_x_9_1_t_x_11_3_more_irrev1_3_1    0.777614716570655 	(obj:0)
prodt_x_10_1_t_x_12_3_more_irrev1_3_1     2.42347216717696 	(obj:0)
prodt_x_13_3_t_x_17_1_more_irrev1_3_1    0.999999999999999 	(obj:0)
prodt_x_14_3_t_x_15_1_more_irrev1_3_1   0.0385128972082258 	(obj:0)
prodt_x_15_1_t_x_20_3_more_irrev1_3_1     1.43021832925681 	(obj:0)
prodt_x_1_2_t_x_2_3_more_irrev2_3_1     -1.2615913414635 	(obj:0)
prodt_x_2_3_t_x_3_1_more_irrev2_3_1    -2.43260679482796 	(obj:0)
prodt_x_4_1_t_x_5_3_more_irrev2_3_1    -2.21323256000001 	(obj:0)
prodt_x_5_1_t_x_10_3_more_irrev2_3_1   -0.674330218098842 	(obj:0)
prodt_x_6_3_t_x_7_1_more_irrev2_3_1    -1.07518597824601 	(obj:0)
prodt_x_7_3_t_x_10_1_more_irrev2_3_1    -1.57496091000001 	(obj:0)
prodt_x_9_1_t_x_11_3_more_irrev2_3_1   -0.777614716570655 	(obj:0)
prodt_x_10_1_t_x_12_3_more_irrev2_3_1    -2.42347216717696 	(obj:0)
prodt_x_13_3_t_x_17_1_more_irrev2_3_1   -0.999999999999999 	(obj:0)
prodt_x_14_3_t_x_15_1_more_irrev2_3_1  -0.0385128972082258 	(obj:0)
prodt_x_15_1_t_x_20_3_more_irrev2_3_1    -1.43021832925681 	(obj:0)
prodt_x_1_2_t_x_2_3_more_irrev1_3_2     -1.2615913414635 	(obj:0)
prodt_x_2_3_t_x_3_2_more_irrev1_3_2   -0.658206844300639 	(obj:0)
prodt_x_3_2_t_x_4_3_more_irrev1_3_2    -3.52932704795785 	(obj:0)
prodt_x_6_3_t_x_7_2_more_irrev1_3_2     -3.7528306947613 	(obj:0)
prodt_x_7_3_t_x_10_2_more_irrev1_3_2          -0.36466349 	(obj:0)
prodt_x_8_2_t_x_9_3_more_irrev1_3_2     -1.3276521632749 	(obj:0)
prodt_x_11_2_t_x_13_3_more_irrev1_3_2    -2.84142883679793 	(obj:0)
prodt_x_12_2_t_x_14_3_more_irrev1_3_2   -0.310795249999999 	(obj:0)
prodt_x_13_3_t_x_17_2_more_irrev1_3_2   -0.871165792943885 	(obj:0)
prodt_x_14_3_t_x_15_2_more_irrev1_3_2    -2.18502069521653 	(obj:0)
prodt_x_16_2_t_x_20_3_more_irrev1_3_2   -0.591473995730046 	(obj:0)
prodt_x_17_3_t_x_18_2_more_irrev1_3_2   -0.157278101066659 	(obj:0)
prodt_x_18_3_t_x_19_2_more_irrev1_3_2     1.75182894843611 	(obj:0)
prodt_x_1_2_t_x_2_3_more_irrev2_3_2      1.2615913414635 	(obj:0)
prodt_x_2_3_t_x_3_2_more_irrev2_3_2    0.658206844300639 	(obj:0)
prodt_x_3_2_t_x_4_3_more_irrev2_3_2     3.52932704795785 	(obj:0)
prodt_x_6_3_t_x_7_2_more_irrev2_3_2     3.75283069476129 	(obj:0)
prodt_x_7_3_t_x_10_2_more_irrev2_3_2           0.36466349 	(obj:0)
prodt_x_8_2_t_x_9_3_more_irrev2_3_2      1.3276521632749 	(obj:0)
prodt_x_11_2_t_x_13_3_more_irrev2_3_2     2.84142883679793 	(obj:0)
prodt_x_12_2_t_x_14_3_more_irrev2_3_2    0.310795249999999 	(obj:0)
prodt_x_13_3_t_x_17_2_more_irrev2_3_2    0.871165792943885 	(obj:0)
prodt_x_14_3_t_x_15_2_more_irrev2_3_2     2.18502069521653 	(obj:0)
prodt_x_16_2_t_x_20_3_more_irrev2_3_2    0.591473995730046 	(obj:0)
prodt_x_17_3_t_x_18_2_more_irrev2_3_2    0.157278101066659 	(obj:0)
prodt_x_18_3_t_x_19_2_more_irrev2_3_2     1.75182894843611 	(obj:0)
SCIP Status        : solving was interrupted [time limit reached]
Total Time         :    3600.00
  solving          :    3600.00
  presolving       :       0.05 (included in solving)
  reading          :       0.00
  copying          :       1.29 (132 #copies) (minimal 0.00, maximal 0.02, average 0.01)
Original Problem   :
  Problem name     : ../instances/Pot4/Pot4_T_20B_alpha=19.txt.spa
  Variables        : 101 (100 binary, 0 integer, 0 implicit integer, 1 continuous)
  Constraints      : 193 initial, 193 maximal
  Objective sense  : maximize
Presolved Problem  :
  Problem name     : t_../instances/Pot4/Pot4_T_20B_alpha=19.txt.spa
  Variables        : 590 (92 binary, 0 integer, 16 implicit integer, 482 continuous)
  Constraints      : 2015 initial, 6994 maximal
Presolvers         :   ExecTime  SetupTime  Calls  FixedVars   AggrVars   ChgTypes  ChgBounds   AddHoles    DelCons    AddCons   ChgSides   ChgCoefs
  boundshift       :       0.00       0.00      0          0          0          0          0          0          0          0          0          0
  components       :       0.00       0.00      1          0          0          0          0          0          0          0          0          0
  convertinttobin  :       0.00       0.00      0          0          0          0          0          0          0          0          0          0
  domcol           :       0.00       0.00      1          0          0          0          0          0          0          0          0          0
  dualagg          :       0.00       0.00      0          0          0          0          0          0          0          0          0          0
  dualinfer        :       0.00       0.00      0          0          0          0          0          0          0          0          0          0
  gateextraction   :       0.01       0.00      3          0          0          0          0          0        108         34          0          0
  implfree         :       0.00       0.00      0          0          0          0          0          0          0          0          0          0
  implics          :       0.00       0.00      4          0          0          0          0          0          0          0          0          0
  inttobinary      :       0.00       0.00      0          0          0          0          0          0          0          0          0          0
  redvub           :       0.00       0.00      0          0          0          0          0          0          0          0          0          0
  stuffing         :       0.00       0.00      1          0          0          0          0          0          0          0          0          0
  trivial          :       0.00       0.00      7          0          0          0          0          0          0          0          0          0
  tworowbnd        :       0.00       0.00      0          0          0          0          0          0          0          0          0          0
  dualfix          :       0.00       0.00      7          4          0          0          0          0          0          0          0          0
  genvbounds       :       0.00       0.00      0          0          0          0          0          0          0          0          0          0
  probing          :       0.03       0.00      1          0          0          0          4          0          0          0          0          0
  pseudoobj        :       0.00       0.00      0          0          0          0          0          0          0          0          0          0
  varbound         :       0.01       0.00      9          0          0          0          0          0         28         28          0          0
  setppc           :       0.00       0.00     12          0          0          0          0          0          0          0          0          0
  and              :       0.00       0.00      4          0         12          0          0          0         12          0          0          0
  linear           :       0.00       0.00      9          3          1          0          4          0          7          0         12         12
  logicor          :       0.00       0.00      7          0          0          0          0          0          0          0          0          0
  bounddisjunction :       0.00       0.00      0          0          0          0          0          0          0          0          0          0
  quadratic        :       0.00       0.00      2          0          0          0          0          0          0       1915          0          0
  root node        :          -          -      -          1          -          -         79          -          -          -          -          -
Constraints        :     Number  MaxNumber  #Separate #Propagate    #EnfoLP    #EnfoPS     #Check   #ResProp    Cutoffs    DomReds       Cuts    Applied      Conss   Children
  integral         :          0          0          0          0    2057135          0     362514          0          0      50333          0          0        134    4098884
  varbound         :        869        869         71   12483503       3525          1     115799    3973282      74105   83462682          5          5          0          0
  setppc           :        110        110         71   12408756       3520          1       1161    2012229      16048    5277461         11          0          0          0
  and              :         22         22       1913      17260          0          0        766     332427          0       2044         28          9          0          0
  linear           :        979        979         71   12393351       3520          0        746    2029224     280224  129657521     168010     167813          0          0
  logicor          :         35+       982         68    3301520          0          0          0      27760       2928     113888          1          1          0          0
  bounddisjunction :          0+      4135          0    5589649          0          0          0     474105       6713    8083982          0          0          0          0
  countsols        :          0          0          0          0          5          1     246701          0          0          0          0          0          0          0
Constraint Timings :  TotalTime  SetupTime   Separate  Propagate     EnfoLP     EnfoPS      Check    ResProp    SB-Prop
  integral         :      19.81       0.00       0.00       0.00      19.74       0.00       0.07       0.00       0.00
  varbound         :      71.42       0.00       0.01      70.09       0.03       0.00       0.44       0.72       0.13
  setppc           :      45.53       0.00       0.00      44.96       0.00       0.00       0.02       0.45       0.10
  and              :       0.12       0.00       0.00       0.01       0.00       0.00       0.00       0.11       0.00
  linear           :     214.48       0.00       0.00     212.28       0.19       0.00       0.00       1.66       0.35
  logicor          :      21.70       0.00       0.00      21.68       0.00       0.00       0.00       0.02       0.00
  bounddisjunction :     135.27       0.00       0.00     135.10       0.00       0.00       0.00       0.13       0.04
  countsols        :       0.00       0.00       0.00       0.00       0.00       0.00       0.00       0.00       0.00
Propagators        : #Propagate   #ResProp    Cutoffs    DomReds
  dualfix          :          2          0          0          0
  genvbounds       :          0          0          0          0
  obbt             :          0          0          0          0
  probing          :          0          0          0          0
  pseudoobj        :   13104363          0       5622         77
  redcost          :    4588883          0       1219     767322
  rootredcost      :          6          0          0          1
  vbounds          :   14540037      10356          0        293
Propagator Timings :  TotalTime  SetupTime   Presolve  Propagate    ResProp    SB-Prop
  dualfix          :       0.00       0.00       0.00       0.00       0.00       0.00
  genvbounds       :       2.10       0.00       0.00       2.10       0.00       0.00
  obbt             :       0.00       0.00       0.00       0.00       0.00       0.00
  probing          :       0.03       0.00       0.03       0.00       0.00       0.00
  pseudoobj        :       4.77       0.00       0.00       4.77       0.00       0.00
  redcost          :      25.26       0.00       0.00      25.26       0.00       0.00
  rootredcost      :       2.18       0.00       0.00       2.18       0.00       0.00
  vbounds          :       5.07       0.00       0.00       5.07       0.00       0.00
Conflict Analysis  :       Time      Calls    Success    DomReds  Conflicts   Literals    Reconvs ReconvLits   LP Iters
  propagation      :       6.09     106840     106469          -    1194994       37.9       7716       46.4          -
  infeasible LP    :       8.71      58085      52538          -     852172       37.8         49       14.8          0
  bound exceed. LP :       0.00          0          0          -          0        0.0          0        0.0          0
  strong branching :       0.00          0          0          -          0        0.0          0        0.0          0
  pseudo solution  :       0.00          0          0          -          0        0.0          0        0.0          -
  applied globally :       4.23          -          -          0     289046       19.6          -          -          -
  applied locally  :          -          -          -          0       2872       32.9          -          -          -
Separators         :   ExecTime  SetupTime      Calls    Cutoffs    DomReds       Cuts    Applied      Conss
  cut pool         :       0.00                    69          -          -       1010          -          -    (maximal pool size: 716)
  cgmip            :       0.00       0.00          0          0          0          0          0          0
  clique           :       0.02       0.00         70          0          0         39         28          0
  closecuts        :       0.00       0.00          0          0          0          0          0          0
  cmir             :       0.01       0.00         10          0          0        170        118          0
  disjunctive      :       0.00       0.00          0          0          0          0          0          0
  eccuts           :       0.00       0.00          0          0          0          0          0          0
  flowcover        :       0.19       0.00         15          0          0        324         31          0
  gomory           :       0.01       0.00         10          0          0          8          8          0
  impliedbounds    :       0.00       0.00         70          0          0        556        136          0
  intobj           :       0.00       0.00          0          0          0          0          0          0
  mcf              :       0.00       0.00          1          0          0          0          0          0
  oddcycle         :       0.00       0.00          0          0          0          0          0          0
  rapidlearning    :       0.00       0.00          0          0          0          0          0          0
  strongcg         :       0.08       0.00         20          0          0         13          4          0
  zerohalf         :       0.00       0.00          0          0          0          0          0          0
Pricers            :   ExecTime  SetupTime      Calls       Vars
  problem variables:       0.00          -          0          0
Branching Rules    :   ExecTime  SetupTime   BranchLP  BranchExt   BranchPS    Cutoffs    DomReds       Cuts      Conss   Children
  allfullstrong    :       0.00       0.00          0          0          0          0          0          0          0          0
  cloud            :       0.00       0.00          0          0          0          0          0          0          0          0
  distribution     :       0.00       0.00          0          0          0          0          0          0          0          0
  fullstrong       :       0.00       0.00          0          0          0          0          0          0          0          0
  inference        :       0.00       0.00          0          0          1          0          0          0          0          2
  leastinf         :       0.00       0.00          0          0          0          0          0          0          0          0
  mostinf          :       0.00       0.00          0          0          0          0          0          0          0          0
  multaggr         :       0.00       0.00          0          0          0          0          0          0          0          0
  nodereopt        :       0.00       0.00          0          0          0          0          0          0          0          0
  pscost           :       0.00       0.00          0          0          0          0          0          0          0          0
  random           :       0.00       0.00          0          0          0          0          0          0          0          0
  relpscost        :      18.78       0.00    2053610          0          0          0      50333          0       -432    4098884
Primal Heuristics  :   ExecTime  SetupTime      Calls      Found       Best
  LP solutions     :       0.00          -          -          5          -
  pseudo solutions :       0.00          -          -          0          -
  strong branching :       0.00          -          -          0          -
  SpaGreedy        :     276.47       0.00     246700          2          1
  actconsdiving    :       0.00       0.00          0          0          0
  bound            :       0.00       0.00          0          0          0
  clique           :       0.00       0.00          0          0          0
  coefdiving       :      31.55       0.00      11004          0          0
  crossover        :       1.01       0.00          5          0          0
  dins             :       0.00       0.00          0          0          0
  distributiondivin:      59.86       0.00      11004          0          0
  dualval          :       0.00       0.00          0          0          0
  feaspump         :      17.98       0.00       2273          0          0
  fixandinfer      :       0.00       0.00          0          0          0
  fracdiving       :      30.83       0.00      11005          0          0
  guideddiving     :      32.52       0.00      11004          0          0
  indicator        :       0.30       0.00          0          0          0
  intdiving        :       0.00       0.00          0          0          0
  intshifting      :       0.38       0.00        205          0          0
  linesearchdiving :      30.49       0.00      11005          0          0
  localbranching   :       0.00       0.00          0          0          0
  mutation         :       0.00       0.00          0          0          0
  nlpdiving        :       0.10       0.00          0          0          0
  objpscostdiving  :      18.62       0.00       2832          0          0
  octane           :       0.00       0.00          0          0          0
  ofins            :       0.00       0.00          0          0          0
  oneopt           :       0.61       0.00          5          0          0
  proximity        :       0.00       0.00          0          0          0
  pscostdiving     :      31.51       0.00      11004          0          0
  randrounding     :       1.19       0.00     115133          0          0
  rens             :       0.16       0.00          1          0          0
  reoptsols        :       0.00       0.00          0          0          0
  rins             :       4.08       0.00        101          0          0
  rootsoldiving    :      20.51       0.00       3748          0          0
  rounding         :       1.00       0.00      19974          0          0
  shiftandpropagate:       0.00       0.00          0          0          0
  shifting         :       1.35       0.00       4874          0          0
  simplerounding   :       0.34       0.00          0          0          0
  subnlp           :       0.54       0.00          0          0          0
  trivial          :       0.00       0.00          2          0          0
  trivialnegation  :       0.00       0.00          0          0          0
  trysol           :       0.77       0.00          0          0          0
  twoopt           :       0.00       0.00          0          0          0
  undercover       :       0.00       0.00          1          0          0
  vbounds          :       0.00       0.00          0          0          0
  veclendiving     :      33.23       0.00      11005          0          0
  zeroobj          :       0.00       0.00          0          0          0
  zirounding       :       0.72       0.00       1000          0          0
  other solutions  :          -          -          -          0          -
Diving Statistics  :      Calls      Nodes   LP Iters Backtracks   MinDepth   MaxDepth   AvgDepth  NLeafSols  MinSolDpt  MaxSolDpt  AvgSolDpt
  actconsdiving    :          0          -          -          -          -          -          -          -          -          -          -
  coefdiving       :      11004      76402     647512      15203         17         42       28.3          -          -          -          -
  distributiondivin:      11004      67291     660653      15290         16         37       27.6          -          -          -          -
  fracdiving       :      11005      75944     731922      17498         16         47       28.0          -          -          -          -
  guideddiving     :      11004      77115     765307      17420         17         49       28.3          -          -          -          -
  linesearchdiving :      11005      68166     706376      16728         17         37       27.4          -          -          -          -
  pscostdiving     :      11004      85167     721259      14180         16         50       29.2          -          -          -          -
  veclendiving     :      11005      75304     648106      19960         17         36       27.8          -          -          -          -
LP                 :       Time      Calls Iterations  Iter/call   Iter/sec  Time-0-It Calls-0-It
  primal LP        :       0.00         10          0       0.00          -       0.00         10
  dual LP          :    1451.81    4147899   58486438      17.07   40285.19      70.76     721209
  lex dual LP      :       0.00          0          0       0.00          -
  barrier LP       :       0.00          0          0       0.00          -       0.00          0
  diving/probing LP:     162.13     280506    6739359      24.03   41567.62
  strong branching :       5.49       5718     193705      33.88   35283.24
    (at root node) :          -         22       1116      50.73          -
  conflict analysis:       0.00          0          0       0.00          -
B&B Tree           :
  number of runs   :          1
  nodes            :    3893244 (2049443 internal, 1843801 leaves)
  nodes (total)    :    3893244 (2049443 internal, 1843801 leaves)
  nodes left       :     194817
  max depth        :         37
  max depth (total):         37
  backtracks       :    1048759 (26.9%)
  delayed cutoffs  :      10616
  repropagations   :     126302 (3474217 domain reductions, 9663 cutoffs)
  avg switch length:       6.35
  switching time   :     572.05
Root Node          :
  First LP value   : +3.00000000000000e+00
  First LP Iters   :        372
  First LP Time    :       0.00
  Final Dual Bound : +7.27661662087505e-03
  Final Root Iters :       2813
Solution           :
  Solutions found  :          7 (6 improvements)
  First Solution   : +7.76648147000014e-04   (in run 1, after 1 nodes, 0.05 seconds, depth 0, found by <SpaGreedy>)
  Gap First Sol.   :   infinite
  Gap Last Sol.    :      66.30 %
  Primal Bound     : +8.56594803000000e-04   (in run 1, after 315939 nodes, 305.98 seconds, depth 29, found by <relaxation>)
  Dual Bound       : +1.19088210417132e-03
  Gap              :      39.03 %
  Avg. Gap         :      39.90 % (143652.95 primal-dual integral)
